Traveling Salesman Problem/TSP_generados/Aleatorio1621103620_16.tsp
NAME: Aleatorio1621103620_16.tsp
COMMENT: Randomly generated scenario
TYPE: TSP
DIMENSION: 16
EDGE_WEIGHT_TYPE: ATT
NODE_COORD_SECTION
1 11.17 4.56
2 19.1 29.5
3 14.28 15.32
4 7.06 25.64
5 18.26 41.39
6 11.16 12.35
7 35.2 19.17
8 5.39 6.27
9 28.22 19.79
10 13.7 15.51
11 1.85 34.62
12 48.35 43.72
13 11.63 41.78
14 29.08 11.91
15 49.36 48.82
16 3.81 33.72
