Traveling Salesman Problem/TSP_generados/Aleatorio1621103620_16.opt.tour
NAME: Aleatorio1621103620_16.opt.tour
COMMENT: Optimal solution for Aleatorio1621103620_16 (175.64101841009082)
TYPE: TOUR
DIMENSION: 16
TOUR_SECTION
1 8 6 10 3 2 4 16 11 13 5 15 12 7 9 14
-1
EOF
